%chk=test.chk
%rwf=test.rwf
#P uhf guess=mix pop=(biorthog,savebio) IOp(6/33=3) 

test

0 1
h 
h 1 2.5


