%chk=test3.chk
%rwf=test3.rwf
#P uhf guess=mix scf=conven 

test

1 2
h 
f 1 2.5


